10	10
0 46	5 49	1 45	7 43	2 48	3 41	9 51	6 52	8 53	4 54
7 48	8 51	0 61	4 52	1 57	9 48	5 52	2 49	6 50	3 50
6 45	1 41	4 47	7 47	0 52	8 56	3 65	9 53	2 46	5 52
9 54	2 55	6 47	7 57	1 44	8 51	3 53	0 53	4 47	5 44
9 57	2 59	5 41	6 42	0 53	4 44	1 54	8 55	3 50	7 55
5 44	9 38	7 50	3 50	1 48	0 51	4 58	6 50	8 54	2 51
0 50	1 55	3 60	8 54	9 47	7 50	2 56	5 53	6 37	4 49
7 44	2 52	0 46	6 45	9 50	4 51	5 44	3 51	8 54	1 44
7 57	8 45	5 49	1 51	0 55	3 49	9 51	6 51	4 49	2 53
3 58	6 64	8 49	7 49	2 47	1 51	5 59	4 36	9 56	0 50
